(set-logic QF_FF)
(define-sort FF0 () (_ FiniteField 21888242871839275222246405745257275088548364400416034343698204186575808495617))
(declare-fun s_4 () FF0)
(declare-fun s_5 () FF0)
(declare-fun s_6 () FF0)
(declare-fun s_7 () FF0)
(declare-fun s_8 () FF0)
(declare-fun s_9 () FF0)
(declare-fun s_10 () FF0)
(declare-fun s_11 () FF0)
(declare-fun s_12 () FF0)
(declare-fun s_13 () FF0)
(declare-fun s_14 () FF0)
(declare-fun s_15 () FF0)
(declare-fun s_16 () FF0)
(declare-fun s_17 () FF0)
(declare-fun s_18 () FF0)
(declare-fun s_19 () FF0)
(declare-fun s_20 () FF0)
(declare-fun s_21 () FF0)
(declare-fun s_22 () FF0)
(declare-fun s_23 () FF0)
(declare-fun s_24 () FF0)
(declare-fun s_25 () FF0)
(declare-fun s_26 () FF0)
(declare-fun s_27 () FF0)
(declare-fun s_28 () FF0)
(declare-fun s_29 () FF0)
(declare-fun s_30 () FF0)
(declare-fun s_31 () FF0)
(declare-fun s_32 () FF0)
(declare-fun s_33 () FF0)
(declare-fun s_34 () FF0)
(declare-fun s_35 () FF0)
(declare-fun s_36 () FF0)
(declare-fun saux_4 () FF0)
(declare-fun saux_5 () FF0)
(declare-fun saux_6 () FF0)
(declare-fun saux_7 () FF0)
(declare-fun saux_8 () FF0)
(declare-fun saux_9 () FF0)
(declare-fun saux_10 () FF0)
(declare-fun saux_11 () FF0)
(declare-fun saux_12 () FF0)
(declare-fun saux_13 () FF0)
(declare-fun saux_14 () FF0)
(declare-fun saux_15 () FF0)
(declare-fun saux_16 () FF0)
(declare-fun saux_17 () FF0)
(declare-fun saux_18 () FF0)
(declare-fun saux_19 () FF0)
(declare-fun saux_20 () FF0)
(declare-fun saux_21 () FF0)
(declare-fun saux_22 () FF0)
(declare-fun saux_23 () FF0)
(declare-fun saux_24 () FF0)
(declare-fun saux_25 () FF0)
(declare-fun saux_26 () FF0)
(declare-fun saux_27 () FF0)
(declare-fun saux_28 () FF0)
(declare-fun saux_29 () FF0)
(declare-fun saux_30 () FF0)
(declare-fun saux_31 () FF0)
(declare-fun saux_32 () FF0)
(declare-fun saux_33 () FF0)
(declare-fun saux_34 () FF0)
(declare-fun saux_35 () FF0)
(declare-fun saux_36 () FF0)
(assert (= (ff.add (ff.mul s_23 (as ff262144 FF0)) (ff.mul s_9 (as ff16 FF0)) (ff.mul s_27 (as ff4194304 FF0)) (ff.mul s_15 (as ff1024 FF0)) (ff.mul s_13 (as ff256 FF0)) (ff.mul s_30 (as ff33554432 FF0)) (ff.mul s_22 (as ff131072 FF0)) (ff.mul s_33 (as ff268435456 FF0)) (ff.mul s_19 (as ff16384 FF0)) (ff.mul s_17 (as ff4096 FF0)) (ff.mul s_11 (as ff64 FF0)) (ff.mul s_21 (as ff65536 FF0)) (ff.mul s_34 (as ff536870912 FF0)) (ff.mul s_32 (as ff134217728 FF0)) (ff.mul s_7 (as ff4 FF0)) (ff.mul s_35 (as ff1073741824 FF0)) (ff.mul s_25 (as ff1048576 FF0)) (ff.mul s_16 (as ff2048 FF0)) (ff.mul s_26 (as ff2097152 FF0)) (ff.mul s_29 (as ff16777216 FF0)) (ff.mul s_31 (as ff67108864 FF0)) (ff.mul s_10 (as ff32 FF0)) (ff.mul s_36 (as ff2147483648 FF0)) (ff.mul s_18 (as ff8192 FF0)) (ff.mul s_14 (as ff512 FF0)) (ff.mul s_24 (as ff524288 FF0)) (ff.mul s_20 (as ff32768 FF0)) (ff.mul s_4 (as ff21888242871839275222246405745257275088548364400416034343698204186575808495616 FF0)) (ff.mul s_6 (as ff2 FF0)) s_5 (ff.mul s_12 (as ff128 FF0)) (ff.mul s_28 (as ff8388608 FF0)) (ff.mul s_8 (as ff8 FF0)) ) (as ff0 FF0)))
(assert (= (ff.add (ff.mul saux_34 (as ff536870912 FF0)) (ff.mul saux_23 (as ff262144 FF0)) (ff.mul saux_35 (as ff1073741824 FF0)) (ff.mul saux_19 (as ff16384 FF0)) (ff.mul saux_6 (as ff2 FF0)) (ff.mul saux_7 (as ff4 FF0)) (ff.mul saux_32 (as ff134217728 FF0)) (ff.mul saux_25 (as ff1048576 FF0)) (ff.mul saux_21 (as ff65536 FF0)) (ff.mul saux_33 (as ff268435456 FF0)) (ff.mul saux_14 (as ff512 FF0)) saux_5 (ff.mul saux_20 (as ff32768 FF0)) (ff.mul saux_10 (as ff32 FF0)) (ff.mul saux_12 (as ff128 FF0)) (ff.mul saux_28 (as ff8388608 FF0)) (ff.mul saux_17 (as ff4096 FF0)) (ff.mul saux_18 (as ff8192 FF0)) (ff.mul saux_11 (as ff64 FF0)) (ff.mul saux_22 (as ff131072 FF0)) (ff.mul saux_29 (as ff16777216 FF0)) (ff.mul saux_26 (as ff2097152 FF0)) (ff.mul saux_16 (as ff2048 FF0)) (ff.mul saux_36 (as ff2147483648 FF0)) (ff.mul saux_4 (as ff21888242871839275222246405745257275088548364400416034343698204186575808495616 FF0)) (ff.mul saux_15 (as ff1024 FF0)) (ff.mul saux_13 (as ff256 FF0)) (ff.mul saux_8 (as ff8 FF0)) (ff.mul saux_24 (as ff524288 FF0)) (ff.mul saux_30 (as ff33554432 FF0)) (ff.mul saux_27 (as ff4194304 FF0)) (ff.mul saux_9 (as ff16 FF0)) (ff.mul saux_31 (as ff67108864 FF0)) ) (as ff0 FF0)))
(assert (and  (= s_5 saux_5)  (= s_6 saux_6)  (= s_7 saux_7)  (= s_8 saux_8)  (= s_9 saux_9)  (= s_10 saux_10)  (= s_11 saux_11)  (= s_12 saux_12)  (= s_13 saux_13)  (= s_14 saux_14)  (= s_15 saux_15)  (= s_16 saux_16)  (= s_17 saux_17)  (= s_18 saux_18)  (= s_19 saux_19)  (= s_20 saux_20)  (= s_21 saux_21)  (= s_22 saux_22)  (= s_23 saux_23)  (= s_24 saux_24)  (= s_25 saux_25)  (= s_26 saux_26)  (= s_27 saux_27)  (= s_28 saux_28)  (= s_29 saux_29)  (= s_30 saux_30)  (= s_31 saux_31)  (= s_32 saux_32)  (= s_33 saux_33)  (= s_34 saux_34)  (= s_35 saux_35)  (= s_36 saux_36) ))
(assert (not (= s_4 saux_4)))
(check-sat)
